/* Objective function */
min: - 0.0054fpdi - 0.0054fpdo + 0.05apdi + 0.05apdo + 0.0002pi + 0.0002po - 0.5fsi - 0.5fso;

apdi = 0.0 hi + -0.0 li + 9.41964 ri + -0.03704 ci + -1.71066 si + -0.0 ti + 0.11429 fTempIi + 0.04654 ami + -132.64955;
asi = 0.0 hi + 0.0 li + 0.0 ri + 0.0 ci + 0.0 si + 0.0 ti + 0.0 fTempIi + 0.00043 ami + -0.0;
aTempOi = 0.0 hi + 0.0 li + 0.15437 ri + -0.21429 ci + -0.03814 si + -0.0 ti + 0.8373 fTempIi + -0.00154 ami + 6.72404;
fpdi = 0.0 hi + 0.0 li + 27.3 ri + -326.52196 ci + -0.05334 si + -0.0 ti + -1.72048 fTempIi + 0.00237 ami + 841.50451;
fsi = 0.0 hi + 0.0 li + -0.0 ri + -0.52 ci + -0.0 si + -0.0 ti + -0.0 fTempIi + 0.0 ami + 2.59;
fTempOi = 0.0 hi + -0.0 li + -0.15327 ri + 0.21878 ci + 0.03764 si + 0.0 ti + 0.19921 fTempIi + -0.00164 ami + 10.75369;
pi = 0.0 hi + -0.0 li + 86.75 ri + 3.66667 ci + -8.49286 si + 0.0 ti + 0.0 fTempIi + -0.0 ami + 225.60714;

apdo = 0.0 ho + -0.0 lo + 8.0375 ro + 0.07708 co + -0.85983 so + -0.0 to + 0.06378 fTempIo + 0.0244 amo + -58.39781;
aso = 0.0 ho + -0.0 lo + 0.00048 ro + 0.00063 co + -0.00026 so + -0.0 to + 0.00049 fTempIo + 0.00043 amo + -0.00053;
aTempOo = 0.0 ho + 0.0 lo + -0.54095 ro + 0.33981 co + 0.04136 so + 0.0 to + 0.62089 fTempIo + 0.0015 amo + 2.82524;
fpdo = 0.0 ho + 0.0 lo + 2.74476 ro + -8.67738 co + 0.00644 so + -0.0 to + -0.13898 fTempIo + -0.00013 amo + 54.5353;
fso = 0.0 ho + 0.0 lo + 6e-05 ro + -0.094 co + -0.0 so + -0.0 to + 0.00014 fTempIo + 0.0 amo + 1.10958;
fTempOo = 0.0 ho + -0.0 lo + 0.52536 ro + -0.33583 co + -0.03936 so + -0.0 to + 0.40167 fTempIo + 0.00121 amo + 10.66399;
po = 0.0 ho + -0.0 lo + 82.04464 ro + 3.33661 co + -4.3245 so + -0.0 to + -0.04398 fTempIo + -0.00014 amo + 291.82335;

/* Variable bounds */
aTempOi > 18.6;
1 =r6i + r8i + r10i + r12i + r14i;
ri =6r6i + 8r8i + 10r10i + 12r12i + 14r14i;
1 =s25i + s30i + s40i;
si =25s25i + 30s30i + 40s40i;
ti = 1;
apdi > 100;
apdi < 300;
asi > 0;
asi < 3;
aTempOi > 5;
aTempOi < 25;
fpdi > 100;
fpdi < 300;
fsi > 0;
fsi < 1.25;
fTempOi > 5;
fTempOi < 25;
pi > 0;
ri > 10;
ri < 14;
ci > 1;
ci < 4;
si > 25;
si < 60;
ti > 1;
ti < 3;
fTempIi > 5;
fTempIi < 25;

/* aTempOo < 11.4; */
1 =r6o + r8o + r10o + r12o + r14o;
ro =6r6o + 8r8o + 10r10o + 12r12o + 14r14o;
1 =s30o + s40o + s50o + s60o;
so =30s30o + 40s40o + 50s50o + 60s60o;
to = 3;
apdo > 100;
apdo < 300;
aso > 0;
aso < 3;
aTempOo > 5;
aTempOo < 25;
fpdo > 100;
fpdo < 300;
fso > 0;
fso < 1.25;
fTempOo > 5;
fTempOo < 25;
po > 0;
ro > 6;
ro < 10;
co > 4;
co < 60;
so > 25;
so < 60;
to > 1;
to < 3;
fTempIo > 5;
fTempIo < 25;
int hi,li,si,ti,ci,ri,ami;
int ho,lo,so,to,co,ro,amo;
bin s25i,s30i,s40i,s50i,s60i,r6i,r8i,r10i,r12i,r14i;
bin s25o,s30o,s40o,s50o,s60o,r6o,r8o,r10o,r12o,r14o;
